outputs/case_432.model.txt
improvement_plan_approved_flag = False
stock_investment_shares_per_company = 500000
foreign_investment_exclusion_approved_foreign_currency_insurance = False
stock_investment_total = 0
financial_bonds_investment_amount = 0
stock_investment_per_company = 2
accelerated_deterioration_flag = False
financial_or_business_deterioration_flag = False
net_worth_ratio = 5
fund_total_issued = 1000000
improvement_plan_overdue = True
fund_investment_per_issued = 5
net_worth = 5000000
company_equity = 100000000
securitized_and_others_investment_total = 5
bonds_investment_per_company = 2
foreign_investment_exclusion_other_approved_items = False
foreign_investment_exclusion_domestic_foreign_currency_securities = False
company_total_shares = 10000000
capital_adequacy_ratio = 180
foreign_investment_exclusions = False
bonds_investment_equity_per_company = 2
bonds_investment_total = 0
foreign_investment_total = 40
improvement_plan_submitted_and_executed = False
total_funds = 100000000
fund_investment_total = 5
foreign_investment_exclusion_approved_foreign_insurance_related_investment = False
investment_limit_financial_bonds = 1
financial_or_business_deterioration = False
capital_level_insufficient = True
capital_level_4_penalty_condition = False
improvement_plan_completed = False
supervisory_measures_needed = False
capital_level_significantly_insufficient = False
insurance_or_representative_exercises_voting_rights = False
investment_prohibited_conditions = True
insurance_or_representative_is_director = False
capital_level_adequate = False
foreign_investment_limit = 1
investment_limit_bonds_per_company_equity = 1
investment_limit_stock_per_company_shares = 1
insurance_or_representative_participates_in_management = False
improvement_plan_approved = False
investment_limit_fund_per_issued = 1
improvement_plan_accelerated_deterioration = False
investment_limit_stock_per_company = 1
investment_limit_stock_and_bonds_total = 1
capital_level = 2
investment_limit_bonds_per_company = 1
foreign_investment_limit_net = 1
investment_limit_fund_total = 1
capital_level_severely_insufficient = False
penalty = False
investment_prohibited_conditions_invalid = False
insurance_or_representative_assigns_manager = False
investment_limit_securitized_and_others = 1
insurance_or_representative_is_trust_supervisor = False